NAME: I12379-n29-k5
COMMENT : (Fake et al, No of trucks: 5, Optimal value: )
TYPE : CVRP
DIMENSION : 29
EDGE_WEIGHT_TYPE : EUC_2D
CAPACITY : 6
NODE_COORD_SECTION
1 192 16
2 808 801
3 369 196
4 664 42
5 318 373
6 484 462
7 460 781
8 686 239
9 328 50
10 75 950
11 831 207
12 621 42
13 50 207
14 193 441
15 205 242
16 493 560
17 140 45
18 795 259
19 802 851
20 617 498
21 293 131
22 855 212
23 339 96
24 417 188
25 682 956
26 520 519
27 467 459
28 629 61
29 65 991
DEMAND_SECTION
1 0
2 1
3 1
4 1
5 1
6 1
7 1
8 1
9 1
10 1
11 1
12 1
13 1
14 1
15 1
16 1
17 1
18 1
19 1
20 1
21 1
22 1
23 1
24 1
25 1
26 1
27 1
28 1
29 1
DEPOT_SECTION
 1
 -1
 EOF 